(set-info :smt-lib-version 2.6)
(set-logic QF_S)
(set-info :source |
Generated by: Murphy Berzish, Mitja Kulczynski, Federico Mora, Florin Manea, Joel Day, Dirk Nowotka, Vijay Ganesh, Zhengyang Lu
Generated on: 2020-10-01
Description: Translated from a collection of real-world regex queries, AutomataArk, collected by Loris D’Antoni and Fang Wang: https://github.com/lorisdanto/automatark
Application: Evaluate solvers on real-world regex queries
Target solver: Z3str3RE, CVC4, OSTRICH, Z3seq, Z3str3, Z3-Trau
Publications: Berzish, M., Kulczynski, M., Mora, F., Manea, F., Day, J. D., Nowotka, D., & Ganesh, V. (2021, July). An SMT solver for regular expressions and linear arithmetic over string length. In CAV 2021.
|)
(set-info :license "https://creativecommons.org/licenses/by/4.0/")
(set-info :category "industrial")
(set-info :status unsat)

(declare-const X String)
(assert (str.in_re X (re.++ (str.to_re "//blog/") ((_ re.loop 3 3) (re.union (re.range "a" "z") (re.range "A" "Z") (re.range "0" "9"))) (str.to_re ".") (re.union (re.++ (str.to_re "g") (re.union (str.to_re "3") (str.to_re "e")) (str.to_re "d")) (str.to_re "mm") (str.to_re "vru") (str.to_re "be") (str.to_re "nut")) (str.to_re "/U\u{a}"))))
(assert (not (str.in_re X (re.++ (str.to_re "/") (re.union (re.range "a" "z") (re.range "0" "9")) (re.* (re.++ (re.opt (re.union (re.+ (str.to_re "_")) (str.to_re "-") (str.to_re "."))) (re.+ (re.union (re.range "a" "z") (re.range "0" "9"))))) (str.to_re "@") (re.union (re.range "a" "z") (re.range "0" "9")) (re.* (re.opt (re.++ (re.opt (re.+ (str.to_re "-"))) (re.+ (re.union (re.range "a" "z") (re.range "0" "9")))))) (str.to_re "/i\u{a}") (re.opt (re.++ re.allchar ((_ re.loop 2 3) (re.range "a" "z")))) re.allchar ((_ re.loop 2 6) (re.range "a" "z"))))))
(assert (str.in_re X (re.++ (re.union (re.++ (str.to_re "1") (re.range "0" "2")) (re.++ (re.opt (str.to_re "0")) (re.range "1" "9"))) (str.to_re ":\u{a}") (re.opt (re.range "0" "5")) (re.range "0" "9") (str.to_re " ") (re.union (str.to_re "AM") (str.to_re "PM")))))
(assert (not (str.in_re X (str.to_re "UBAgentwhenu.com\u{13}wp-includes/feed.php?\u{a}"))))
(assert (not (str.in_re X (re.++ (str.to_re "/.pcx") (re.union (str.to_re "?") (str.to_re "/")) (str.to_re "/Uim\u{a}")))))
(check-sat)

(exit)
